20
 N2C1W2_A 
 100 100 0 
100
100
100
99
99
98
96
95
95
94
93
93
92
90
90
89
86
86
85
85
84
83
82
82
82
81
80
79
77
77
77
76
75
75
75
74
73
71
71
69
68
67
67
67
65
63
63
60
57
56
56
55
55
54
54
54
53
53
51
51
47
46
46
45
45
45
44
44
44
44
43
41
40
40
39
39
39
39
38
36
36
34
33
33
32
32
31
30
29
28
26
25
24
24
23
22
22
22
21
20
 N2C1W2_B 
 100 100 0 
99
96
96
94
94
93
93
90
90
88
88
88
87
87
86
85
84
84
84
83
83
83
82
81
81
80
80
77
75
75
75
74
73
69
69
67
67
66
66
65
65
64
64
63
63
63
59
58
56
55
54
54
53
53
52
50
50
50
48
48
47
47
45
43
42
42
42
41
41
41
40
39
38
38
34
34
32
32
32
31
31
30
30
29
27
26
26
26
26
25
25
25
24
23
22
22
22
21
21
20
 N2C1W2_C 
 100 100 0 
98
96
95
95
94
94
92
91
89
88
86
85
84
84
83
83
82
82
81
80
80
79
77
77
77
75
75
75
75
75
72
71
70
69
68
68
66
66
66
66
64
64
64
64
63
62
62
61
59
58
58
58
57
56
56
56
56
55
55
54
54
53
51
51
51
50
50
49
49
49
48
48
48
45
45
44
43
41
40
40
36
34
33
32
32
32
29
27
27
27
27
25
25
25
24
23
23
21
21
20
 N2C1W2_D 
 100 100 0 
100
99
98
97
96
95
94
94
94
93
93
93
92
92
92
91
90
90
89
88
88
87
86
85
85
85
84
83
83
83
79
78
78
78
77
77
77
76
74
74
73
72
72
71
71
70
70
69
68
67
65
64
64
63
61
61
60
59
59
58
57
57
56
55
55
55
54
54
54
54
52
52
51
51
49
46
46
46
45
44
43
41
40
39
38
37
35
35
32
32
32
30
30
30
29
28
27
23
22
20
 N2C1W2_E 
 100 100 0 
100
100
100
99
99
99
99
98
97
96
95
94
94
91
90
90
90
89
89
89
88
88
87
87
86
85
85
85
84
82
81
80
80
79
79
77
76
74
73
71
70
69
68
68
67
67
66
65
65
65
62
62
62
59
59
59
57
57
55
55
54
51
50
49
47
47
46
45
45
43
42
41
41
41
39
38
37
35
35
34
34
34
33
32
31
30
29
29
27
26
26
25
24
24
24
21
21
21
20
20
 N2C1W2_F 
 100 100 0 
100
99
99
98
98
98
96
96
96
96
95
95
94
94
93
91
90
90
89
89
89
88
88
86
85
83
83
83
83
81
81
79
79
78
78
78
77
76
75
75
72
71
68
68
67
66
61
60
60
59
59
58
58
58
57
56
52
52
52
52
50
47
47
47
44
43
43
43
41
41
41
40
39
38
36
36
32
32
32
31
29
29
29
28
28
28
28
27
27
27
26
25
24
24
24
24
23
23
21
21
 N2C1W2_G 
 100 100 0 
99
99
99
99
97
97
95
94
92
92
92
91
91
90
90
90
89
88
87
87
86
85
84
83
83
83
81
80
79
78
78
77
76
76
74
73
73
72
72
72
71
70
70
70
68
68
67
67
65
65
65
64
64
64
64
63
63
63
63
61
60
59
58
57
57
56
55
54
53
51
50
49
48
48
48
47
47
45
41
39
39
38
38
37
36
35
29
28
27
26
26
24
22
22
22
22
22
21
20
20
 N2C1W2_H 
 100 100 0 
100
99
95
95
94
94
93
93
93
92
91
88
87
86
86
86
86
85
85
85
84
84
84
83
82
81
79
78
77
76
76
76
76
75
75
73
72
71
71
69
69
69
69
67
67
65
65
64
64
64
64
63
63
62
61
61
60
59
59
59
57
57
56
56
55
55
54
53
51
49
47
45
45
43
43
43
42
42
42
38
37
36
36
33
31
29
28
28
28
28
27
27
27
26
26
25
24
22
22
20
 N2C1W2_I 
 100 100 0 
100
99
98
97
97
96
95
95
93
93
93
93
91
91
90
89
89
89
89
89
89
88
88
87
86
84
84
81
80
79
78
78
76
75
74
72
72
71
71
70
69
69
66
66
63
63
62
62
61
60
59
59
57
57
55
55
55
54
54
54
53
53
52
52
51
50
50
50
49
49
48
47
47
41
40
40
39
38
36
35
34
33
33
32
31
31
31
31
30
30
28
27
24
23
23
22
21
20
20
20
 N2C1W2_J 
 100 100 0 
99
97
96
95
95
95
94
94
94
93
92
90
90
89
89
89
89
89
89
88
88
86
86
85
85
85
84
84
83
82
82
80
79
78
78
78
77
77
77
76
75
75
69
67
66
66
66
65
65
65
64
64
62
62
58
58
58
58
58
55
54
53
53
51
50
50
50
49
49
46
45
42
42
42
41
40
39
39
37
37
37
37
35
33
33
32
31
30
29
28
26
25
21
21
21
21
21
20
20
20
 N2C1W2_K 
 100 100 0 
100
99
98
97
95
95
93
92
91
91
91
91
90
89
89
88
88
86
85
85
83
81
81
81
80
80
79
78
77
77
77
76
76
76
75
75
74
74
73
73
71
71
70
70
69
69
69
67
67
67
67
66
65
63
63
63
63
62
62
62
61
57
55
53
53
51
51
51
50
50
49
49
48
48
48
47
47
46
43
41
41
40
36
36
36
36
35
35
33
32
32
31
31
29
28
28
25
25
23
21
 N2C1W2_L 
 100 100 0 
100
97
96
96
94
94
94
93
93
93
91
91
90
90
88
83
83
82
82
81
81
80
78
78
78
76
75
75
74
72
72
71
70
70
70
70
70
67
65
64
64
64
63
62
62
61
60
60
58
58
57
55
55
54
53
52
52
51
50
49
48
47
47
47
46
45
45
45
44
43
42
42
41
41
40
39
38
38
36
36
35
35
35
33
32
31
30
30
29
27
26
25
24
24
23
23
22
22
22
20
 N2C1W2_M 
 100 100 0 
100
100
99
98
97
97
97
96
95
95
95
95
94
92
92
91
91
90
90
89
89
89
87
86
85
83
82
82
80
80
79
78
76
75
74
72
72
71
71
71
70
66
65
63
63
63
63
62
61
60
60
60
60
59
57
55
55
55
53
52
51
46
46
46
45
45
42
41
41
41
40
40
39
39
39
39
38
38
37
36
36
35
35
35
35
34
34
31
30
29
29
28
27
27
27
27
26
26
22
22
 N2C1W2_N 
 100 100 0 
100
100
99
99
99
98
96
95
95
94
94
94
93
93
92
92
92
91
91
89
86
86
85
85
83
82
81
81
80
78
77
77
75
74
74
73
70
70
69
69
68
68
67
66
65
64
63
63
62
60
59
59
58
56
56
56
55
54
51
50
50
49
48
47
47
46
46
46
44
44
43
42
39
39
38
38
37
37
34
34
32
32
31
30
30
29
29
28
28
27
27
27
25
24
24
24
23
21
20
20
 N2C1W2_O 
 100 100 0 
100
98
98
98
98
97
96
95
95
94
93
92
90
90
89
88
88
88
87
87
86
85
84
83
83
83
82
82
80
80
79
79
78
78
76
74
74
74
74
71
69
68
68
67
67
66
64
64
64
64
62
62
61
60
60
55
55
53
53
50
49
49
47
45
44
44
43
43
42
42
42
41
41
39
36
35
35
33
33
32
31
31
31
31
30
30
29
28
25
25
23
23
22
22
21
21
21
20
20
20
 N2C1W2_P 
 100 100 0 
99
98
97
96
96
95
94
93
93
92
92
90
90
89
89
88
88
88
88
86
86
85
83
82
82
80
80
80
79
79
77
77
77
76
76
76
74
73
73
71
71
70
69
69
69
68
68
67
66
66
65
63
60
59
57
57
57
57
56
53
53
52
51
51
51
51
50
47
46
45
44
44
44
43
42
42
39
39
38
38
38
37
36
36
36
32
31
30
28
28
27
27
27
26
26
24
24
22
22
20
 N2C1W2_Q 
 100 100 0 
97
97
97
96
96
95
94
94
94
90
89
86
85
84
83
79
78
78
78
77
77
77
76
76
75
75
74
74
72
72
71
71
70
69
69
67
67
66
66
66
66
65
65
64
63
63
62
62
61
60
59
59
57
56
56
55
53
53
52
52
51
51
51
50
50
49
49
49
49
48
48
47
47
45
43
40
39
37
37
35
34
33
33
32
32
31
30
29
28
28
28
27
27
27
25
24
24
23
23
22
 N2C1W2_R 
 100 100 0 
100
99
98
98
98
98
97
97
96
96
96
94
94
93
92
90
88
87
87
86
86
85
85
85
85
85
84
84
83
83
83
83
80
79
79
78
77
77
76
75
75
74
71
70
69
67
65
64
62
62
62
62
61
61
60
58
57
56
55
55
55
54
54
53
52
51
49
49
47
46
45
44
44
43
43
41
41
40
39
37
34
32
32
31
29
28
28
27
26
26
25
25
24
24
23
23
22
22
21
20
 N2C1W2_S 
 100 100 0 
100
98
98
97
96
94
94
93
93
91
90
90
90
89
89
87
87
86
86
86
84
84
82
82
81
81
80
79
77
77
77
76
76
75
75
73
72
72
71
70
70
70
70
67
64
62
62
59
59
59
58
58
58
55
55
54
54
53
53
53
51
51
50
50
50
49
49
48
47
46
46
45
45
44
41
41
39
39
37
37
37
37
35
34
34
34
33
33
33
32
31
29
27
25
25
24
23
22
20
20
 N2C1W2_T 
 100 100 0 
100
99
99
99
98
97
95
94
94
94
93
93
92
92
91
90
90
90
90
89
89
87
86
85
83
82
80
80
79
79
78
78
78
77
75
72
71
70
70
67
65
64
63
62
62
62
61
60
60
59
58
58
58
57
57
56
56
56
55
55
54
52
51
49
49
48
47
46
46
46
46
46
44
44
43
42
42
39
37
36
36
35
34
34
33
33
33
32
30
30
30
27
26
25
24
24
24
21
21
20
